n = 7;
m = 4;
consecutive_high_days_allowed = 1;
high_regime_percentage = 80;
capacity = [1100, 350, 600];
production_cost = [50, 20, 30];
demand = [| 750, 730, 720, 710, 700, 690, 680
           | 850, 870, 880, 890, 900, 910, 920
           | 900, 910, 920, 930, 940, 950, 960
           | 800, 810, 800, 820, 830, 840, 850|];
payment_per_mw = [60, 55, 53, 57];
G = 50;
